n_res = 4;
rc = [ 30, 31, 38, 35 ];
n_tasks = 30;
d = [ 4, 4, 5, 3, 8, 2, 1, 5, 1, 3, 6, 6, 3, 2, 8, 6, 3, 4, 2, 6, 5, 3, 2, 7, 4, 2, 10, 6, 8, 5 ];
rr = [| 30, 30, 30, 30, 30, 30, 30, 30, 30, 30, 30, 30, 30, 30, 30, 30, 30, 30, 30, 30, 30, 30, 30, 30, 30, 30, 30, 30, 30, 30
      | 31, 31, 31, 31, 31, 31, 31, 31, 31, 31, 31, 31, 31, 31, 31, 31, 31, 31, 31, 31, 31, 31, 31, 31, 31, 31, 31, 31, 31, 31
      | 38, 38, 38, 38, 38, 38, 38, 38, 38, 38, 38, 38, 38, 38, 38, 38, 38, 38, 38, 38, 38, 38, 38, 38, 38, 38, 38, 38, 38, 38
      | 35, 35, 35, 35, 35, 35, 35, 35, 35, 35, 35, 35, 35, 35, 35, 35, 35, 35, 35, 35, 35, 35, 35, 35, 35, 35, 35, 35, 35, 35|];
suc = [ { 8 },
       { 22 },
       { 4, 8, 10 },
       { 5, 6, 7 },
       { 15, 18, 22 },
       { 12, 17 },
       { 9, 11, 19 },
       { 21 },
       { 15, 16 },
       { 14, 23 },
       { 13, 16 },
       { 16, 20 },
       { 17, 23, 25 },
       { 21, 28 },
       { 27 },
       { 23, 24, 26 },
       { 21, 22 },
       { 19, 26, 29 },
       { 20 },
       { 24, 25 },
       { 27 },
       { 26, 29, 30 },
       { 27, 28 },
       { 30 },
       { 30 },
       { 28 },
       { 29 },
       {  },
       {  },
       {  } ];
